
Gurobi 10.0.3 (linux64, gurobi_cl) logging started Thu Nov  9 11:50:24 2023

Set parameter Username
Set parameter TimeLimit to value 3600
Set parameter LogFile to value "RCPSP_1261.log"
Set parameter Threads to value 32
Academic license - for non-commercial use only - expires 2024-11-06
Using license file /home/jrivera6/gurobi-licenses/v1003/compute-0-36/gurobi.lic

Gurobi Optimizer version 10.0.3 build v10.0.3rc0 (linux64)
Copyright (c) 2023, Gurobi Optimization, LLC

Read MPS format model from file RCPSP_1261.mps
Reading time = 0.08 seconds
RCPSP_1261: 42947 rows, 17020 columns, 159151 nonzeros

CPU model: Intel(R) Xeon(R) Gold 6130 CPU @ 2.10GHz, instruction set [SSE2|AVX|AVX2|AVX512]
Thread count: 32 physical cores, 32 logical processors, using up to 32 threads

Optimize a model with 42947 rows, 17020 columns and 159151 nonzeros
Model fingerprint: 0x4c38c4b9
Variable types: 92 continuous, 16928 integer (16928 binary)
Coefficient statistics:
  Matrix range     [1e+00, 5e+02]
  Objective range  [1e+00, 1e+00]
  Bounds range     [1e+00, 1e+00]
  RHS range        [1e+00, 5e+02]
Presolve removed 7852 rows and 2021 columns
Presolve time: 4.84s
Presolved: 35095 rows, 14999 columns, 136610 nonzeros
Variable types: 91 continuous, 14908 integer (14908 binary)

Deterministic concurrent LP optimizer: primal and dual simplex (primal and dual model)
Showing first log only...

Root relaxation presolved: 35095 rows, 14999 columns, 136610 nonzeros


Root simplex log...

Iteration    Objective       Primal Inf.    Dual Inf.      Time
       0    8.0939196e+01   6.937213e-03   2.862500e+08      6s
    2238    7.9000000e+01   0.000000e+00   0.000000e+00      7s
Concurrent spin time: 0.49s

Solved with dual simplex (dual model)

Root relaxation: objective 7.900000e+01, 17123 iterations, 1.85 seconds (0.13 work units)
Total elapsed time = 10.14s

    Nodes    |    Current Node    |     Objective Bounds      |     Work
 Expl Unexpl |  Obj  Depth IntInf | Incumbent    BestBd   Gap | It/Node Time

     0     0   79.00000    0   18          -   79.00000      -     -   11s
     0     0   79.00000    0  414          -   79.00000      -     -   28s
     0     0   79.00000    0  409          -   79.00000      -     -   29s
     0     0   79.00000    0    4          -   79.00000      -     -   34s
     0     0   79.00000    0    6          -   79.00000      -     -   38s
     0     0   79.00000    0    2          -   79.00000      -     -   42s
     0     0   79.00000    0    2          -   79.00000      -     -   42s
     0     0   79.00000    0    4          -   79.00000      -     -   44s
     0     0   79.00000    0    4          -   79.00000      -     -   44s
     0     0   79.00000    0    2          -   79.00000      -     -   47s
     0     0   79.00000    0    2          -   79.00000      -     -   50s
H    0     0                     471.0000000   79.00000  83.2%     -   52s
     0     0   79.00000    0    2  471.00000   79.00000  83.2%     -   52s
H    0     0                      80.0000000   79.00000  1.25%     -   53s
H    0     0                      79.0000000   79.00000  0.00%     -   70s
     0     0   79.00000    0 1092   79.00000   79.00000  0.00%     -   70s

Explored 1 nodes (38372 simplex iterations) in 70.19 seconds (8.23 work units)
Thread count was 32 (of 32 available processors)

Solution count 3: 79 80 471 

Optimal solution found (tolerance 1.00e-04)
Best objective 7.900000000000e+01, best bound 7.900000000000e+01, gap 0.0000%

Wrote result file 'RCPSP_1261.sol'

